NAME          DCAP_2_3_3_500_SS50
ROWS
 N  OBJ
 L  CON1
 L  CON2
 L  CON3
 L  CON4
 L  CON5
 L  CON6
 L  CON7
 L  CON8
 L  CON9
 L  CON10
 L  CON11
 L  CON12
 E  CON13
 E  CON14
 E  CON15
 E  CON16
 E  CON17
 E  CON18
 E  CON19
 E  CON20
 E  CON21
COLUMNS
    x[1,1]    OBJ       6.180167      CON1      1.000000    
    x[1,1]    CON7      -1.000000     CON8      -1.000000   
    x[1,1]    CON9      -1.000000   
    x[1,2]    OBJ       6.563535      CON2      1.000000    
    x[1,2]    CON8      -1.000000     CON9      -1.000000   
    x[1,3]    OBJ       7.443064      CON3      1.000000    
    x[1,3]    CON9      -1.000000   
    x[2,1]    OBJ       6.732585      CON4      1.000000    
    x[2,1]    CON10     -1.000000     CON11     -1.000000   
    x[2,1]    CON12     -1.000000   
    x[2,2]    OBJ       5.039546      CON5      1.000000    
    x[2,2]    CON11     -1.000000     CON12     -1.000000   
    x[2,3]    OBJ       6.054841      CON6      1.000000    
    x[2,3]    CON12     -1.000000   
    MARKER    'MARKER'                'INTORG'
    u[1,1]    OBJ       48.076654     CON1      -1.000000   
    u[1,2]    OBJ       20.066487     CON2      -1.000000   
    u[1,3]    OBJ       32.230043     CON3      -1.000000   
    u[2,1]    OBJ       49.996186     CON4      -1.000000   
    u[2,2]    OBJ       49.466655     CON5      -1.000000   
    u[2,3]    OBJ       27.484319     CON6      -1.000000   
    y[1,1,1]  OBJ       6.097579      CON7      0.982577    
    y[1,1,1]  CON13     1.000000    
    y[1,1,2]  OBJ       5.994750      CON8      0.984177    
    y[1,1,2]  CON14     1.000000    
    y[1,1,3]  OBJ       9.158683      CON9      1.151182    
    y[1,1,3]  CON15     1.000000    
    y[1,2,1]  OBJ       6.244141      CON7      1.190454    
    y[1,2,1]  CON16     1.000000    
    y[1,2,2]  OBJ       5.485875      CON8      0.606657    
    y[1,2,2]  CON17     1.000000    
    y[1,2,3]  OBJ       5.676790      CON9      0.712262    
    y[1,2,3]  CON18     1.000000    
    y[1,3,1]  OBJ       6.024347      CON7      0.588115    
    y[1,3,1]  CON19     1.000000    
    y[1,3,2]  OBJ       9.950560      CON8      0.688435    
    y[1,3,2]  CON20     1.000000    
    y[1,3,3]  OBJ       8.144163      CON9      0.576120    
    y[1,3,3]  CON21     1.000000    
    y[2,1,1]  OBJ       6.215847      CON10     0.982577    
    y[2,1,1]  CON13     1.000000    
    y[2,1,2]  OBJ       5.621189      CON11     0.984177    
    y[2,1,2]  CON14     1.000000    
    y[2,1,3]  OBJ       6.678586      CON12     1.151182    
    y[2,1,3]  CON15     1.000000    
    y[2,2,1]  OBJ       6.032366      CON10     1.190454    
    y[2,2,1]  CON16     1.000000    
    y[2,2,2]  OBJ       7.956325      CON11     0.606657    
    y[2,2,2]  CON17     1.000000    
    y[2,2,3]  OBJ       5.645992      CON12     0.712262    
    y[2,2,3]  CON18     1.000000    
    y[2,3,1]  OBJ       8.150627      CON10     0.588115    
    y[2,3,1]  CON19     1.000000    
    y[2,3,2]  OBJ       8.283568      CON11     0.688435    
    y[2,3,2]  CON20     1.000000    
    y[2,3,3]  OBJ       5.592880      CON12     0.576120    
    y[2,3,3]  CON21     1.000000    
    z[1,1]    OBJ       537.138288    CON13     1.000000    
    z[1,2]    OBJ       979.531008    CON14     1.000000    
    z[1,3]    OBJ       549.711955    CON15     1.000000    
    z[2,1]    OBJ       979.605409    CON16     1.000000    
    z[2,2]    OBJ       786.173328    CON17     1.000000    
    z[2,3]    OBJ       832.155135    CON18     1.000000    
    z[3,1]    OBJ       812.099632    CON19     1.000000    
    z[3,2]    OBJ       529.977396    CON20     1.000000    
    z[3,3]    OBJ       702.252385    CON21     1.000000    
    MARKER    'MARKER'                 'INTEND'
RHS
    RHS       CON1      -0.000000     CON2      -0.000000   
    RHS       CON3      -0.000000     CON4      -0.000000   
    RHS       CON5      -0.000000     CON6      -0.000000   
    RHS       CON7      -0.000000     CON8      -0.000000   
    RHS       CON9      -0.000000     CON10     -0.000000   
    RHS       CON11     -0.000000     CON12     -0.000000   
    RHS       CON13     1.000000      CON14     1.000000    
    RHS       CON15     1.000000      CON16     1.000000    
    RHS       CON17     1.000000      CON18     1.000000    
    RHS       CON19     1.000000      CON20     1.000000    
    RHS       CON21     1.000000    
BOUNDS
 BV BOUND     u[1,1]  
 BV BOUND     u[1,2]  
 BV BOUND     u[1,3]  
 BV BOUND     u[2,1]  
 BV BOUND     u[2,2]  
 BV BOUND     u[2,3]  
 BV BOUND     y[1,1,1]
 BV BOUND     y[1,1,2]
 BV BOUND     y[1,1,3]
 BV BOUND     y[1,2,1]
 BV BOUND     y[1,2,2]
 BV BOUND     y[1,2,3]
 BV BOUND     y[1,3,1]
 BV BOUND     y[1,3,2]
 BV BOUND     y[1,3,3]
 BV BOUND     y[2,1,1]
 BV BOUND     y[2,1,2]
 BV BOUND     y[2,1,3]
 BV BOUND     y[2,2,1]
 BV BOUND     y[2,2,2]
 BV BOUND     y[2,2,3]
 BV BOUND     y[2,3,1]
 BV BOUND     y[2,3,2]
 BV BOUND     y[2,3,3]
 BV BOUND     z[1,1]  
 BV BOUND     z[1,2]  
 BV BOUND     z[1,3]  
 BV BOUND     z[2,1]  
 BV BOUND     z[2,2]  
 BV BOUND     z[2,3]  
 BV BOUND     z[3,1]  
 BV BOUND     z[3,2]  
 BV BOUND     z[3,3]  
ENDATA
